;(set-option :produce-unsat-cores true )
(set-logic ALL_SUPPORTED )
(declare-sort Ref$ 0 )
(declare-sort Dag$ 0)
(declare-fun tip$ ()Dag$)
(declare-fun select$ (Dag$)Dag$)
(declare-fun selecta$ (Dag$)Ref$)
(declare-fun selectb$ (Dag$)Dag$)
(declare-fun node$ (Dag$ Ref$ Dag$ )Dag$)
(declare-fun x$ ()Dag$ )
(declare-fun less_eq$ (Dag$ Dag$ )Bool )
(assert (! (not (less_eq$ x$ x$ )):named a0 ))
(check-sat )
;(get-unsat-core )
